p cnf 7230 18
1578 3892 3912 3938 3966 4615 0
-1580 -4619 0
1580 3904 3926 3956 4618 0
-3912 -4615 0
-3938 -4615 0
-3904 -4619 0
-3966 -4615 0
-3926 -4619 0
-4618 4619 0
4616 4617 0
3888 -4617 0
-3888 -4616 0
-3956 -4619 0
4614 4615 0
-3928 -4621 0
-3906 -4621 0
-1580 -4621 0
-4614 -4615 0
